fcmp.smt2
; SMT-LIBv2 description generated by Yosys 0.56+101 (git sha1 dbb977aa8, aarch64-apple-darwin23.5-clang++ 18.1.8 -fPIC -O3)
; yosys-smt2-stdt
; yosys-smt2-module fcmp
(declare-datatype |fcmp_s| ((|fcmp_mk|
  (|fcmp_is| Bool)
  (|fcmp#0| (_ BitVec 8)) ; \opa [30:23]
  (|fcmp#3| (_ BitVec 23)) ; \opa [22:0]
  (|fcmp#7| (_ BitVec 8)) ; \opb [30:23]
  (|fcmp#10| (_ BitVec 23)) ; \opb [22:0]
  (|fcmp#37| Bool) ; \opb [31]
  (|fcmp#38| Bool) ; \opa [31]
)))
(define-fun |fcmp#1| ((state |fcmp_s|)) Bool (distinct (|fcmp#0| state) #b00000000)) ; $reduce_or$verilog_benchmarks/iodine-benchmarks/fpu/fcmp/verilog/fcmp.v:100$23_Y
(define-fun |fcmp#2| ((state |fcmp_s|)) Bool (not (or  (|fcmp#1| state) false))) ; $logic_not$verilog_benchmarks/iodine-benchmarks/fpu/fcmp/verilog/fcmp.v:100$24_Y
(define-fun |fcmp#4| ((state |fcmp_s|)) Bool (distinct (|fcmp#3| state) #b00000000000000000000000)) ; $reduce_or$verilog_benchmarks/iodine-benchmarks/fpu/fcmp/verilog/fcmp.v:84$3_Y
(define-fun |fcmp#5| ((state |fcmp_s|)) Bool (not (or  (|fcmp#4| state) false))) ; $logic_not$verilog_benchmarks/iodine-benchmarks/fpu/fcmp/verilog/fcmp.v:84$4_Y
(define-fun |fcmp#6| ((state |fcmp_s|)) (_ BitVec 1) (bvand (ite (|fcmp#2| state) #b1 #b0) (ite (|fcmp#5| state) #b1 #b0))) ; $and$verilog_benchmarks/iodine-benchmarks/fpu/fcmp/verilog/fcmp.v:100$25_Y
(define-fun |fcmp#8| ((state |fcmp_s|)) Bool (distinct (|fcmp#7| state) #b00000000)) ; $reduce_or$verilog_benchmarks/iodine-benchmarks/fpu/fcmp/verilog/fcmp.v:101$26_Y
(define-fun |fcmp#9| ((state |fcmp_s|)) Bool (not (or  (|fcmp#8| state) false))) ; $logic_not$verilog_benchmarks/iodine-benchmarks/fpu/fcmp/verilog/fcmp.v:101$27_Y
(define-fun |fcmp#11| ((state |fcmp_s|)) Bool (distinct (|fcmp#10| state) #b00000000000000000000000)) ; $reduce_or$verilog_benchmarks/iodine-benchmarks/fpu/fcmp/verilog/fcmp.v:85$5_Y
(define-fun |fcmp#12| ((state |fcmp_s|)) Bool (not (or  (|fcmp#11| state) false))) ; $logic_not$verilog_benchmarks/iodine-benchmarks/fpu/fcmp/verilog/fcmp.v:85$6_Y
(define-fun |fcmp#13| ((state |fcmp_s|)) (_ BitVec 1) (bvand (ite (|fcmp#9| state) #b1 #b0) (ite (|fcmp#12| state) #b1 #b0))) ; $and$verilog_benchmarks/iodine-benchmarks/fpu/fcmp/verilog/fcmp.v:101$28_Y
(define-fun |fcmp#14| ((state |fcmp_s|)) (_ BitVec 1) (bvand (|fcmp#6| state) (|fcmp#13| state))) ; $and$verilog_benchmarks/iodine-benchmarks/fpu/fcmp/verilog/fcmp.v:118$35_Y
; yosys-smt2-wire all_zero 1
(define-fun |fcmp_n all_zero| ((state |fcmp_s|)) Bool (= ((_ extract 0 0) (|fcmp#14| state)) #b1))
(define-fun |fcmp#15| ((state |fcmp_s|)) Bool (bvult (|fcmp#3| state) (|fcmp#10| state))) ; $lt$verilog_benchmarks/iodine-benchmarks/fpu/fcmp/verilog/fcmp.v:116$34_Y
; yosys-smt2-wire fract_lt 1
(define-fun |fcmp_n fract_lt| ((state |fcmp_s|)) Bool (|fcmp#15| state))
(define-fun |fcmp#16| ((state |fcmp_s|)) Bool (bvugt (|fcmp#3| state) (|fcmp#10| state))) ; $gt$verilog_benchmarks/iodine-benchmarks/fpu/fcmp/verilog/fcmp.v:115$33_Y
; yosys-smt2-wire fract_gt 1
(define-fun |fcmp_n fract_gt| ((state |fcmp_s|)) Bool (|fcmp#16| state))
(define-fun |fcmp#17| ((state |fcmp_s|)) Bool (= (|fcmp#3| state) (|fcmp#10| state))) ; $eq$verilog_benchmarks/iodine-benchmarks/fpu/fcmp/verilog/fcmp.v:114$32_Y
; yosys-smt2-wire fract_eq 1
(define-fun |fcmp_n fract_eq| ((state |fcmp_s|)) Bool (|fcmp#17| state))
(define-fun |fcmp#18| ((state |fcmp_s|)) Bool (bvult (|fcmp#0| state) (|fcmp#7| state))) ; $lt$verilog_benchmarks/iodine-benchmarks/fpu/fcmp/verilog/fcmp.v:112$31_Y
; yosys-smt2-wire exp_lt 1
(define-fun |fcmp_n exp_lt| ((state |fcmp_s|)) Bool (|fcmp#18| state))
(define-fun |fcmp#19| ((state |fcmp_s|)) Bool (bvugt (|fcmp#0| state) (|fcmp#7| state))) ; $gt$verilog_benchmarks/iodine-benchmarks/fpu/fcmp/verilog/fcmp.v:111$30_Y
; yosys-smt2-wire exp_gt 1
(define-fun |fcmp_n exp_gt| ((state |fcmp_s|)) Bool (|fcmp#19| state))
(define-fun |fcmp#20| ((state |fcmp_s|)) Bool (= (|fcmp#0| state) (|fcmp#7| state))) ; $eq$verilog_benchmarks/iodine-benchmarks/fpu/fcmp/verilog/fcmp.v:110$29_Y
; yosys-smt2-wire exp_eq 1
(define-fun |fcmp_n exp_eq| ((state |fcmp_s|)) Bool (|fcmp#20| state))
; yosys-smt2-wire opb_zero 1
(define-fun |fcmp_n opb_zero| ((state |fcmp_s|)) Bool (= ((_ extract 0 0) (|fcmp#13| state)) #b1))
; yosys-smt2-wire opa_zero 1
(define-fun |fcmp_n opa_zero| ((state |fcmp_s|)) Bool (= ((_ extract 0 0) (|fcmp#6| state)) #b1))
(define-fun |fcmp#21| ((state |fcmp_s|)) Bool (= (|fcmp#0| state) #b11111111)) ; $reduce_and$verilog_benchmarks/iodine-benchmarks/fpu/fcmp/verilog/fcmp.v:81$1_Y
(define-fun |fcmp#22| ((state |fcmp_s|)) Bool (not (or  (= ((_ extract 22 22) (|fcmp#3| state)) #b1) false))) ; $logic_not$verilog_benchmarks/iodine-benchmarks/fpu/fcmp/verilog/fcmp.v:88$7_Y
(define-fun |fcmp#23| ((state |fcmp_s|)) Bool (distinct ((_ extract 21 0) (|fcmp#3| state)) #b0000000000000000000000)) ; $reduce_or$verilog_benchmarks/iodine-benchmarks/fpu/fcmp/verilog/fcmp.v:88$8_Y
(define-fun |fcmp#24| ((state |fcmp_s|)) (_ BitVec 1) (bvand (ite (|fcmp#22| state) #b1 #b0) (ite (|fcmp#23| state) #b1 #b0))) ; $and$verilog_benchmarks/iodine-benchmarks/fpu/fcmp/verilog/fcmp.v:88$9_Y
(define-fun |fcmp#25| ((state |fcmp_s|)) (_ BitVec 1) (bvand (ite (|fcmp#21| state) #b1 #b0) (|fcmp#24| state))) ; $and$verilog_benchmarks/iodine-benchmarks/fpu/fcmp/verilog/fcmp.v:97$19_Y
(define-fun |fcmp#26| ((state |fcmp_s|)) Bool (= (|fcmp#7| state) #b11111111)) ; $reduce_and$verilog_benchmarks/iodine-benchmarks/fpu/fcmp/verilog/fcmp.v:82$2_Y
(define-fun |fcmp#27| ((state |fcmp_s|)) Bool (not (or  (= ((_ extract 22 22) (|fcmp#10| state)) #b1) false))) ; $logic_not$verilog_benchmarks/iodine-benchmarks/fpu/fcmp/verilog/fcmp.v:90$10_Y
(define-fun |fcmp#28| ((state |fcmp_s|)) Bool (distinct ((_ extract 21 0) (|fcmp#10| state)) #b0000000000000000000000)) ; $reduce_or$verilog_benchmarks/iodine-benchmarks/fpu/fcmp/verilog/fcmp.v:90$11_Y
(define-fun |fcmp#29| ((state |fcmp_s|)) (_ BitVec 1) (bvand (ite (|fcmp#27| state) #b1 #b0) (ite (|fcmp#28| state) #b1 #b0))) ; $and$verilog_benchmarks/iodine-benchmarks/fpu/fcmp/verilog/fcmp.v:90$12_Y
(define-fun |fcmp#30| ((state |fcmp_s|)) (_ BitVec 1) (bvand (ite (|fcmp#26| state) #b1 #b0) (|fcmp#29| state))) ; $and$verilog_benchmarks/iodine-benchmarks/fpu/fcmp/verilog/fcmp.v:97$20_Y
(define-fun |fcmp#31| ((state |fcmp_s|)) (_ BitVec 1) (bvor (|fcmp#25| state) (|fcmp#30| state))) ; $or$verilog_benchmarks/iodine-benchmarks/fpu/fcmp/verilog/fcmp.v:97$21_Y
; yosys-smt2-wire snan 1
(define-fun |fcmp_n snan| ((state |fcmp_s|)) Bool (= ((_ extract 0 0) (|fcmp#31| state)) #b1))
(define-fun |fcmp#32| ((state |fcmp_s|)) (_ BitVec 1) (bvand (ite (|fcmp#21| state) #b1 #b0) ((_ extract 22 22) (|fcmp#3| state)))) ; $and$verilog_benchmarks/iodine-benchmarks/fpu/fcmp/verilog/fcmp.v:96$16_Y
(define-fun |fcmp#33| ((state |fcmp_s|)) (_ BitVec 1) (bvand (ite (|fcmp#26| state) #b1 #b0) ((_ extract 22 22) (|fcmp#10| state)))) ; $and$verilog_benchmarks/iodine-benchmarks/fpu/fcmp/verilog/fcmp.v:96$17_Y
(define-fun |fcmp#34| ((state |fcmp_s|)) (_ BitVec 1) (bvor (|fcmp#32| state) (|fcmp#33| state))) ; $or$verilog_benchmarks/iodine-benchmarks/fpu/fcmp/verilog/fcmp.v:96$18_Y
; yosys-smt2-wire qnan 1
(define-fun |fcmp_n qnan| ((state |fcmp_s|)) Bool (= ((_ extract 0 0) (|fcmp#34| state)) #b1))
(define-fun |fcmp#35| ((state |fcmp_s|)) (_ BitVec 1) (bvand (ite (|fcmp#26| state) #b1 #b0) (ite (|fcmp#12| state) #b1 #b0))) ; $and$verilog_benchmarks/iodine-benchmarks/fpu/fcmp/verilog/fcmp.v:93$14_Y
; yosys-smt2-wire opb_inf 1
(define-fun |fcmp_n opb_inf| ((state |fcmp_s|)) Bool (= ((_ extract 0 0) (|fcmp#35| state)) #b1))
(define-fun |fcmp#36| ((state |fcmp_s|)) (_ BitVec 1) (bvand (ite (|fcmp#21| state) #b1 #b0) (ite (|fcmp#5| state) #b1 #b0))) ; $and$verilog_benchmarks/iodine-benchmarks/fpu/fcmp/verilog/fcmp.v:92$13_Y
; yosys-smt2-wire opa_inf 1
(define-fun |fcmp_n opa_inf| ((state |fcmp_s|)) Bool (= ((_ extract 0 0) (|fcmp#36| state)) #b1))
; yosys-smt2-wire snan_b 1
(define-fun |fcmp_n snan_b| ((state |fcmp_s|)) Bool (= ((_ extract 0 0) (|fcmp#29| state)) #b1))
; yosys-smt2-wire qnan_b 1
(define-fun |fcmp_n qnan_b| ((state |fcmp_s|)) Bool (= ((_ extract 22 22) (|fcmp#10| state)) #b1))
; yosys-smt2-wire snan_a 1
(define-fun |fcmp_n snan_a| ((state |fcmp_s|)) Bool (= ((_ extract 0 0) (|fcmp#24| state)) #b1))
; yosys-smt2-wire qnan_a 1
(define-fun |fcmp_n qnan_a| ((state |fcmp_s|)) Bool (= ((_ extract 22 22) (|fcmp#3| state)) #b1))
; yosys-smt2-wire fractb_00 1
(define-fun |fcmp_n fractb_00| ((state |fcmp_s|)) Bool (|fcmp#12| state))
; yosys-smt2-wire fracta_00 1
(define-fun |fcmp_n fracta_00| ((state |fcmp_s|)) Bool (|fcmp#5| state))
; yosys-smt2-wire expb_ff 1
(define-fun |fcmp_n expb_ff| ((state |fcmp_s|)) Bool (|fcmp#26| state))
; yosys-smt2-wire expa_ff 1
(define-fun |fcmp_n expa_ff| ((state |fcmp_s|)) Bool (|fcmp#21| state))
; yosys-smt2-wire fractb 23
(define-fun |fcmp_n fractb| ((state |fcmp_s|)) (_ BitVec 23) (|fcmp#10| state))
; yosys-smt2-wire fracta 23
(define-fun |fcmp_n fracta| ((state |fcmp_s|)) (_ BitVec 23) (|fcmp#3| state))
; yosys-smt2-wire expb 8
(define-fun |fcmp_n expb| ((state |fcmp_s|)) (_ BitVec 8) (|fcmp#7| state))
; yosys-smt2-wire expa 8
(define-fun |fcmp_n expa| ((state |fcmp_s|)) (_ BitVec 8) (|fcmp#0| state))
; yosys-smt2-wire signb 1
(define-fun |fcmp_n signb| ((state |fcmp_s|)) Bool (|fcmp#37| state))
; yosys-smt2-wire signa 1
(define-fun |fcmp_n signa| ((state |fcmp_s|)) Bool (|fcmp#38| state))
; yosys-smt2-output zero 1
; yosys-smt2-wire zero 1
(define-fun |fcmp_n zero| ((state |fcmp_s|)) Bool (= ((_ extract 0 0) (|fcmp#6| state)) #b1))
(define-fun |fcmp#39| ((state |fcmp_s|)) (_ BitVec 1) (bvor (|fcmp#36| state) (|fcmp#35| state))) ; $or$verilog_benchmarks/iodine-benchmarks/fpu/fcmp/verilog/fcmp.v:94$15_Y
; yosys-smt2-output inf 1
; yosys-smt2-wire inf 1
(define-fun |fcmp_n inf| ((state |fcmp_s|)) Bool (= ((_ extract 0 0) (|fcmp#39| state)) #b1))
(define-fun |fcmp#40| ((state |fcmp_s|)) Bool (= (concat (|fcmp#34| state) (concat (|fcmp#31| state) (concat (|fcmp#36| state) (concat (|fcmp#35| state) (concat (ite (|fcmp#38| state) #b1 #b0) (concat (ite (|fcmp#37| state) #b1 #b0) (concat (ite (|fcmp#20| state) #b1 #b0) (concat (ite (|fcmp#19| state) #b1 #b0) (concat (ite (|fcmp#18| state) #b1 #b0) (concat (ite (|fcmp#17| state) #b1 #b0) (concat (ite (|fcmp#16| state) #b1 #b0) (ite (|fcmp#15| state) #b1 #b0)))))))))))) #b000011100100)) ; $procmux$39_CMP
(define-fun |fcmp#41| ((state |fcmp_s|)) Bool (= (concat (|fcmp#34| state) (concat (|fcmp#31| state) (concat (|fcmp#36| state) (concat (|fcmp#35| state) (concat (ite (|fcmp#38| state) #b1 #b0) (concat (ite (|fcmp#37| state) #b1 #b0) (concat (ite (|fcmp#20| state) #b1 #b0) (concat (ite (|fcmp#19| state) #b1 #b0) (concat (ite (|fcmp#18| state) #b1 #b0) (concat (ite (|fcmp#17| state) #b1 #b0) (concat (ite (|fcmp#16| state) #b1 #b0) (ite (|fcmp#15| state) #b1 #b0)))))))))))) #b000000100100)) ; $procmux$40_CMP
(define-fun |fcmp#42| ((state |fcmp_s|)) Bool (= (concat (|fcmp#34| state) (concat (|fcmp#31| state) (concat (|fcmp#36| state) (concat (|fcmp#35| state) (concat (ite (|fcmp#38| state) #b1 #b0) (concat (ite (|fcmp#37| state) #b1 #b0) (concat (ite (|fcmp#20| state) #b1 #b0) (concat (ite (|fcmp#19| state) #b1 #b0) (concat (ite (|fcmp#18| state) #b1 #b0) (concat (ite (|fcmp#17| state) #b1 #b0) (concat (ite (|fcmp#16| state) #b1 #b0) (ite (|fcmp#15| state) #b1 #b0)))))))))))) #b000011100001)) ; $procmux$41_CMP
(define-fun |fcmp#43| ((state |fcmp_s|)) Bool (= (concat (|fcmp#34| state) (concat (|fcmp#31| state) (concat (|fcmp#36| state) (concat (|fcmp#35| state) (concat (ite (|fcmp#38| state) #b1 #b0) (concat (ite (|fcmp#37| state) #b1 #b0) (concat (ite (|fcmp#20| state) #b1 #b0) (concat (ite (|fcmp#19| state) #b1 #b0) (concat (ite (|fcmp#18| state) #b1 #b0) (concat (ite (|fcmp#17| state) #b1 #b0) (concat (ite (|fcmp#16| state) #b1 #b0) (ite (|fcmp#15| state) #b1 #b0)))))))))))) #b000011100010)) ; $procmux$42_CMP
(define-fun |fcmp#44| ((state |fcmp_s|)) Bool (= (concat (|fcmp#34| state) (concat (|fcmp#31| state) (concat (|fcmp#36| state) (concat (|fcmp#35| state) (concat (ite (|fcmp#38| state) #b1 #b0) (concat (ite (|fcmp#37| state) #b1 #b0) (concat (ite (|fcmp#20| state) #b1 #b0) (concat (ite (|fcmp#19| state) #b1 #b0) (concat (ite (|fcmp#18| state) #b1 #b0) (concat (ite (|fcmp#17| state) #b1 #b0) (concat (ite (|fcmp#16| state) #b1 #b0) (ite (|fcmp#15| state) #b1 #b0)))))))))))) #b000000100001)) ; $procmux$43_CMP
(define-fun |fcmp#45| ((state |fcmp_s|)) Bool (= (concat (|fcmp#34| state) (concat (|fcmp#31| state) (concat (|fcmp#36| state) (concat (|fcmp#35| state) (concat (ite (|fcmp#38| state) #b1 #b0) (concat (ite (|fcmp#37| state) #b1 #b0) (concat (ite (|fcmp#20| state) #b1 #b0) (concat (ite (|fcmp#19| state) #b1 #b0) (concat (ite (|fcmp#18| state) #b1 #b0) (concat (ite (|fcmp#17| state) #b1 #b0) (concat (ite (|fcmp#16| state) #b1 #b0) (ite (|fcmp#15| state) #b1 #b0)))))))))))) #b000000100010)) ; $procmux$44_CMP
(define-fun |fcmp#46| ((state |fcmp_s|)) Bool (= (concat (|fcmp#34| state) (concat (|fcmp#31| state) (concat (|fcmp#36| state) (concat (|fcmp#35| state) (concat (ite (|fcmp#38| state) #b1 #b0) (concat (ite (|fcmp#37| state) #b1 #b0) (concat (ite (|fcmp#20| state) #b1 #b0) (concat (ite (|fcmp#19| state) #b1 #b0) (ite (|fcmp#18| state) #b1 #b0))))))))) #b000011001)) ; $procmux$45_CMP
(define-fun |fcmp#47| ((state |fcmp_s|)) Bool (= (concat (|fcmp#34| state) (concat (|fcmp#31| state) (concat (|fcmp#36| state) (concat (|fcmp#35| state) (concat (ite (|fcmp#38| state) #b1 #b0) (concat (ite (|fcmp#37| state) #b1 #b0) (concat (ite (|fcmp#20| state) #b1 #b0) (concat (ite (|fcmp#19| state) #b1 #b0) (ite (|fcmp#18| state) #b1 #b0))))))))) #b000011010)) ; $procmux$46_CMP
(define-fun |fcmp#48| ((state |fcmp_s|)) Bool (= (concat (|fcmp#34| state) (concat (|fcmp#31| state) (concat (|fcmp#36| state) (concat (|fcmp#35| state) (concat (ite (|fcmp#38| state) #b1 #b0) (concat (ite (|fcmp#37| state) #b1 #b0) (concat (ite (|fcmp#20| state) #b1 #b0) (concat (ite (|fcmp#19| state) #b1 #b0) (ite (|fcmp#18| state) #b1 #b0))))))))) #b000000001)) ; $procmux$47_CMP
(define-fun |fcmp#49| ((state |fcmp_s|)) Bool (= (concat (|fcmp#34| state) (concat (|fcmp#31| state) (concat (|fcmp#36| state) (concat (|fcmp#35| state) (concat (ite (|fcmp#38| state) #b1 #b0) (concat (ite (|fcmp#37| state) #b1 #b0) (concat (ite (|fcmp#20| state) #b1 #b0) (concat (ite (|fcmp#19| state) #b1 #b0) (ite (|fcmp#18| state) #b1 #b0))))))))) #b000000010)) ; $procmux$48_CMP
(define-fun |fcmp#50| ((state |fcmp_s|)) (_ BitVec 3) (ite (|fcmp#49| state) #b100 (ite (|fcmp#48| state) #b010 (ite (|fcmp#47| state) #b010 (ite (|fcmp#46| state) #b100 (ite (|fcmp#45| state) #b100 (ite (|fcmp#44| state) #b010 (ite (|fcmp#43| state) #b010 (ite (|fcmp#42| state) #b100 (ite (|fcmp#41| state) #b001 (ite (|fcmp#40| state) #b001 #b000))))))))))) ; $procmux$38_Y
(define-fun |fcmp#51| ((state |fcmp_s|)) Bool (= (concat (|fcmp#34| state) (concat (|fcmp#31| state) (concat (|fcmp#36| state) (concat (|fcmp#35| state) (|fcmp#14| state))))) #b00001)) ; $procmux$50_CMP
(define-fun |fcmp#52| ((state |fcmp_s|)) Bool (= (concat (|fcmp#34| state) (concat (|fcmp#31| state) (concat (|fcmp#36| state) (concat (|fcmp#35| state) (concat (ite (|fcmp#38| state) #b1 #b0) (concat (ite (|fcmp#37| state) #b1 #b0) (|fcmp#14| state))))))) #b0000010)) ; $procmux$51_CMP
(define-fun |fcmp#53| ((state |fcmp_s|)) Bool (= (concat (|fcmp#34| state) (concat (|fcmp#31| state) (concat (|fcmp#36| state) (concat (|fcmp#35| state) (concat (ite (|fcmp#38| state) #b1 #b0) (concat (ite (|fcmp#37| state) #b1 #b0) (|fcmp#14| state))))))) #b0000100)) ; $procmux$52_CMP
(define-fun |fcmp#54| ((state |fcmp_s|)) Bool (= (concat (|fcmp#34| state) (concat (|fcmp#31| state) (concat (|fcmp#36| state) (concat (|fcmp#35| state) (concat (ite (|fcmp#38| state) #b1 #b0) (ite (|fcmp#37| state) #b1 #b0)))))) #b000111)) ; $procmux$53_CMP
(define-fun |fcmp#55| ((state |fcmp_s|)) Bool (= (concat (|fcmp#34| state) (concat (|fcmp#31| state) (concat (|fcmp#36| state) (concat (|fcmp#35| state) (concat (ite (|fcmp#38| state) #b1 #b0) (ite (|fcmp#37| state) #b1 #b0)))))) #b000110)) ; $procmux$54_CMP
(define-fun |fcmp#56| ((state |fcmp_s|)) Bool (= (concat (|fcmp#34| state) (concat (|fcmp#31| state) (concat (|fcmp#36| state) (concat (|fcmp#35| state) (concat (ite (|fcmp#38| state) #b1 #b0) (ite (|fcmp#37| state) #b1 #b0)))))) #b000101)) ; $procmux$55_CMP
(define-fun |fcmp#57| ((state |fcmp_s|)) Bool (= (concat (|fcmp#34| state) (concat (|fcmp#31| state) (concat (|fcmp#36| state) (concat (|fcmp#35| state) (concat (ite (|fcmp#38| state) #b1 #b0) (ite (|fcmp#37| state) #b1 #b0)))))) #b000100)) ; $procmux$56_CMP
(define-fun |fcmp#58| ((state |fcmp_s|)) Bool (= (concat (|fcmp#34| state) (concat (|fcmp#31| state) (concat (|fcmp#36| state) (concat (|fcmp#35| state) (concat (ite (|fcmp#38| state) #b1 #b0) (ite (|fcmp#37| state) #b1 #b0)))))) #b001011)) ; $procmux$57_CMP
(define-fun |fcmp#59| ((state |fcmp_s|)) Bool (= (concat (|fcmp#34| state) (concat (|fcmp#31| state) (concat (|fcmp#36| state) (concat (|fcmp#35| state) (concat (ite (|fcmp#38| state) #b1 #b0) (ite (|fcmp#37| state) #b1 #b0)))))) #b001010)) ; $procmux$58_CMP
(define-fun |fcmp#60| ((state |fcmp_s|)) Bool (= (concat (|fcmp#34| state) (concat (|fcmp#31| state) (concat (|fcmp#36| state) (concat (|fcmp#35| state) (concat (ite (|fcmp#38| state) #b1 #b0) (ite (|fcmp#37| state) #b1 #b0)))))) #b001001)) ; $procmux$59_CMP
(define-fun |fcmp#61| ((state |fcmp_s|)) Bool (= (concat (|fcmp#34| state) (concat (|fcmp#31| state) (concat (|fcmp#36| state) (concat (|fcmp#35| state) (concat (ite (|fcmp#38| state) #b1 #b0) (ite (|fcmp#37| state) #b1 #b0)))))) #b001000)) ; $procmux$60_CMP
(define-fun |fcmp#62| ((state |fcmp_s|)) Bool (= (concat (|fcmp#34| state) (concat (|fcmp#31| state) (concat (|fcmp#36| state) (concat (|fcmp#35| state) (concat (ite (|fcmp#38| state) #b1 #b0) (ite (|fcmp#37| state) #b1 #b0)))))) #b001111)) ; $procmux$61_CMP
(define-fun |fcmp#63| ((state |fcmp_s|)) Bool (= (concat (|fcmp#34| state) (concat (|fcmp#31| state) (concat (|fcmp#36| state) (concat (|fcmp#35| state) (concat (ite (|fcmp#38| state) #b1 #b0) (ite (|fcmp#37| state) #b1 #b0)))))) #b001110)) ; $procmux$62_CMP
(define-fun |fcmp#64| ((state |fcmp_s|)) Bool (= (concat (|fcmp#34| state) (concat (|fcmp#31| state) (concat (|fcmp#36| state) (concat (|fcmp#35| state) (concat (ite (|fcmp#38| state) #b1 #b0) (ite (|fcmp#37| state) #b1 #b0)))))) #b001101)) ; $procmux$63_CMP
(define-fun |fcmp#65| ((state |fcmp_s|)) Bool (= (concat (|fcmp#34| state) (concat (|fcmp#31| state) (concat (|fcmp#36| state) (concat (|fcmp#35| state) (concat (ite (|fcmp#38| state) #b1 #b0) (ite (|fcmp#37| state) #b1 #b0)))))) #b001100)) ; $procmux$64_CMP
(define-fun |fcmp#66| ((state |fcmp_s|)) (_ BitVec 3) (ite (= ((_ extract 0 0) (|fcmp#31| state)) #b1) #b000 (ite (|fcmp#65| state) #b001 (ite (|fcmp#64| state) #b100 (ite (|fcmp#63| state) #b010 (ite (|fcmp#62| state) #b001 (ite (|fcmp#61| state) #b100 (ite (|fcmp#60| state) #b100 (ite (|fcmp#59| state) #b010 (ite (|fcmp#58| state) #b010 (ite (|fcmp#57| state) #b010 (ite (|fcmp#56| state) #b100 (ite (|fcmp#55| state) #b010 (ite (|fcmp#54| state) #b100 (ite (|fcmp#53| state) #b010 (ite (|fcmp#52| state) #b100 (ite (|fcmp#51| state) #b001 (|fcmp#50| state)))))))))))))))))) ; $procmux$49_Y
(define-fun |fcmp#67| ((state |fcmp_s|)) (_ BitVec 3) (ite (= ((_ extract 0 0) (|fcmp#34| state)) #b1) #b000 (|fcmp#66| state))) ; $procmux$66_Y
; yosys-smt2-output aeqb 1
; yosys-smt2-wire aeqb 1
(define-fun |fcmp_n aeqb| ((state |fcmp_s|)) Bool (= ((_ extract 0 0) (|fcmp#67| state)) #b1))
; yosys-smt2-output blta 1
; yosys-smt2-wire blta 1
(define-fun |fcmp_n blta| ((state |fcmp_s|)) Bool (= ((_ extract 1 1) (|fcmp#67| state)) #b1))
; yosys-smt2-output altb 1
; yosys-smt2-wire altb 1
(define-fun |fcmp_n altb| ((state |fcmp_s|)) Bool (= ((_ extract 2 2) (|fcmp#67| state)) #b1))
(define-fun |fcmp#68| ((state |fcmp_s|)) (_ BitVec 1) (bvor (|fcmp#34| state) (|fcmp#31| state))) ; $or$verilog_benchmarks/iodine-benchmarks/fpu/fcmp/verilog/fcmp.v:98$22_Y
; yosys-smt2-output unordered 1
; yosys-smt2-wire unordered 1
(define-fun |fcmp_n unordered| ((state |fcmp_s|)) Bool (= ((_ extract 0 0) (|fcmp#68| state)) #b1))
; yosys-smt2-input opb 32
; yosys-smt2-wire opb 32
; yosys-smt2-witness {"offset": 0, "path": ["\\opb"], "smtname": "opb", "smtoffset": 0, "type": "input", "width": 32}
(define-fun |fcmp_n opb| ((state |fcmp_s|)) (_ BitVec 32) (concat (ite (|fcmp#37| state) #b1 #b0) (concat (|fcmp#7| state) (|fcmp#10| state))))
; yosys-smt2-input opa 32
; yosys-smt2-wire opa 32
; yosys-smt2-witness {"offset": 0, "path": ["\\opa"], "smtname": "opa", "smtoffset": 0, "type": "input", "width": 32}
(define-fun |fcmp_n opa| ((state |fcmp_s|)) (_ BitVec 32) (concat (ite (|fcmp#38| state) #b1 #b0) (concat (|fcmp#0| state) (|fcmp#3| state))))
(define-fun |fcmp_a| ((state |fcmp_s|)) Bool true)
(define-fun |fcmp_u| ((state |fcmp_s|)) Bool true)
(define-fun |fcmp_i| ((state |fcmp_s|)) Bool true)
(define-fun |fcmp_h| ((state |fcmp_s|)) Bool true)
(define-fun |fcmp_t| ((state |fcmp_s|) (next_state |fcmp_s|)) Bool true) ; end of module fcmp
; yosys-smt2-topmod fcmp
; end of yosys output
